NAME /Users/henri/Research/solvers/instances/idol-instances/robust/collection/cbp_Subramanyam_et_al_2020/CapBud_N15_18/models/uncertain_technology_matrix/
ROWS
 N  OBJ
 L  capacity
 L  c_2035
 L  c_2036
 L  c_2037
 L  c_2038
 L  c_2039
 L  c_2040
 L  c_2041
 L  c_2042
 L  c_2043
 L  c_2044
 L  c_2045
 L  c_2046
 L  c_2047
 L  c_2048
 L  c_2049
COLUMNS
    MARKER    'MARKER'                 'INTORG'
    x_0        OBJ        -9.12056
    x_0        c_2035     1
    x_0        capacity   1.82411
    x_1        OBJ        -9.81493
    x_1        c_2036     1
    x_1        capacity   1.96299
    x_2        OBJ        -7.27121
    x_2        c_2037     1
    x_2        capacity   1.45424
    x_3        OBJ        -4.11638
    x_3        c_2038     1
    x_3        capacity   0.823276
    x_4        OBJ        -8.72797
    x_4        c_2039     1
    x_4        capacity   1.74559
    x_5        OBJ        -4.19332
    x_5        c_2040     1
    x_5        capacity   0.838664
    x_6        OBJ        -6.66847
    x_6        c_2041     1
    x_6        capacity   1.33369
    x_7        OBJ        -4.89628
    x_7        c_2042     1
    x_7        capacity   0.979257
    x_8        OBJ        -7.7947
    x_8        c_2043     1
    x_8        capacity   1.55894
    x_9        OBJ        -7.35585
    x_9        c_2044     1
    x_9        capacity   1.47117
    x_10       OBJ        -3.90695
    x_10       c_2045     1
    x_10       capacity   0.781389
    x_11       OBJ        -1.00813
    x_11       c_2046     1
    x_11       capacity   0.201627
    x_12       OBJ        -9.51767
    x_12       c_2047     1
    x_12       capacity   1.90353
    x_13       OBJ        -9.1861
    x_13       c_2048     1
    x_13       capacity   1.83722
    x_14       OBJ        -1.81878
    x_14       c_2049     1
    x_14       capacity   0.363755
    y_0        OBJ        -7.29645
    y_0        c_2035     1
    y_0        capacity   1.82411
    y_1        OBJ        -7.85195
    y_1        c_2036     1
    y_1        capacity   1.96299
    y_2        OBJ        -5.81697
    y_2        c_2037     1
    y_2        capacity   1.45424
    y_3        OBJ        -3.2931
    y_3        c_2038     1
    y_3        capacity   0.823276
    y_4        OBJ        -6.98238
    y_4        c_2039     1
    y_4        capacity   1.74559
    y_5        OBJ        -3.35466
    y_5        c_2040     1
    y_5        capacity   0.838664
    y_6        OBJ        -5.33478
    y_6        c_2041     1
    y_6        capacity   1.33369
    y_7        OBJ        -3.91703
    y_7        c_2042     1
    y_7        capacity   0.979257
    y_8        OBJ        -6.23576
    y_8        c_2043     1
    y_8        capacity   1.55894
    y_9        OBJ        -5.88468
    y_9        c_2044     1
    y_9        capacity   1.47117
    y_10       OBJ        -3.12556
    y_10       c_2045     1
    y_10       capacity   0.781389
    y_11       OBJ        -0.806507
    y_11       c_2046     1
    y_11       capacity   0.201627
    y_12       OBJ        -7.61414
    y_12       c_2047     1
    y_12       capacity   1.90353
    y_13       OBJ        -7.34888
    y_13       c_2048     1
    y_13       capacity   1.83722
    y_14       OBJ        -1.45502
    y_14       c_2049     1
    y_14       capacity   0.363755
    MARKER    'MARKER'                 'INTEND'
RHS
    RHS       capacity   47.6987
    RHS       c_2035     1
    RHS       c_2036     1
    RHS       c_2037     1
    RHS       c_2038     1
    RHS       c_2039     1
    RHS       c_2040     1
    RHS       c_2041     1
    RHS       c_2042     1
    RHS       c_2043     1
    RHS       c_2044     1
    RHS       c_2045     1
    RHS       c_2046     1
    RHS       c_2047     1
    RHS       c_2048     1
    RHS       c_2049     1
BOUNDS
 LI BND       x_0        0
 UI BND       x_0        1
 LI BND       x_1        0
 UI BND       x_1        1
 LI BND       x_2        0
 UI BND       x_2        1
 LI BND       x_3        0
 UI BND       x_3        1
 LI BND       x_4        0
 UI BND       x_4        1
 LI BND       x_5        0
 UI BND       x_5        1
 LI BND       x_6        0
 UI BND       x_6        1
 LI BND       x_7        0
 UI BND       x_7        1
 LI BND       x_8        0
 UI BND       x_8        1
 LI BND       x_9        0
 UI BND       x_9        1
 LI BND       x_10       0
 UI BND       x_10       1
 LI BND       x_11       0
 UI BND       x_11       1
 LI BND       x_12       0
 UI BND       x_12       1
 LI BND       x_13       0
 UI BND       x_13       1
 LI BND       x_14       0
 UI BND       x_14       1
 LI BND       y_0        0
 UI BND       y_0        1
 LI BND       y_1        0
 UI BND       y_1        1
 LI BND       y_2        0
 UI BND       y_2        1
 LI BND       y_3        0
 UI BND       y_3        1
 LI BND       y_4        0
 UI BND       y_4        1
 LI BND       y_5        0
 UI BND       y_5        1
 LI BND       y_6        0
 UI BND       y_6        1
 LI BND       y_7        0
 UI BND       y_7        1
 LI BND       y_8        0
 UI BND       y_8        1
 LI BND       y_9        0
 UI BND       y_9        1
 LI BND       y_10       0
 UI BND       y_10       1
 LI BND       y_11       0
 UI BND       y_11       1
 LI BND       y_12       0
 UI BND       y_12       1
 LI BND       y_13       0
 UI BND       y_13       1
 LI BND       y_14       0
 UI BND       y_14       1
ENDATA
